10 5
0 20 3 87 4 31 2 76 1 17
4 25 2 32 0 24 1 18 3 81
3 72 1 23 2 28 0 60 4 40
1 15 0 35 3 76 2 31 4 13
0 28 1 59 4 89 2 58 3 11
2 45 4 24 1 41 3 34 0 94
1 93 2 29 3 77 0 79 4 62
4 32 0 54 3 31 1 55 2 13
2 30 4 89 0 7 3 13 1 66
1 38 3 21 0 54 2 72 4 95
